% sin mantenimiento
n_jobs = 3;
n_machines = 2;
n_ops_for = [2, 2, 2];
dur = array2d(1..3, 1..2, [
  3, 5,
  4, 2,
  2, 6
]);
machine_for = array2d(1..3, 1..2, [
  1, 2,
  2, 1,
  1, 2
]);
maint_start = [0, 0];
maint_end   = [0, 0];

